; benchmark generated from python API
(set-info :status unknown)
(declare-fun cell_1_1 () Int)
(declare-fun cell_2_1 () Int)
(declare-fun cell_3_1 () Int)
(declare-fun cell_4_1 () Int)
(declare-fun cell_5_1 () Int)
(declare-fun cell_6_1 () Int)
(declare-fun cell_7_1 () Int)
(declare-fun cell_8_1 () Int)
(declare-fun cell_9_1 () Int)
(declare-fun cell_1_2 () Int)
(declare-fun cell_2_2 () Int)
(declare-fun cell_3_2 () Int)
(declare-fun cell_4_2 () Int)
(declare-fun cell_5_2 () Int)
(declare-fun cell_6_2 () Int)
(declare-fun cell_7_2 () Int)
(declare-fun cell_8_2 () Int)
(declare-fun cell_9_2 () Int)
(declare-fun cell_1_3 () Int)
(declare-fun cell_2_3 () Int)
(declare-fun cell_3_3 () Int)
(declare-fun cell_4_3 () Int)
(declare-fun cell_5_3 () Int)
(declare-fun cell_6_3 () Int)
(declare-fun cell_7_3 () Int)
(declare-fun cell_8_3 () Int)
(declare-fun cell_9_3 () Int)
(declare-fun cell_1_4 () Int)
(declare-fun cell_2_4 () Int)
(declare-fun cell_3_4 () Int)
(declare-fun cell_4_4 () Int)
(declare-fun cell_5_4 () Int)
(declare-fun cell_6_4 () Int)
(declare-fun cell_7_4 () Int)
(declare-fun cell_8_4 () Int)
(declare-fun cell_9_4 () Int)
(declare-fun cell_1_5 () Int)
(declare-fun cell_2_5 () Int)
(declare-fun cell_3_5 () Int)
(declare-fun cell_4_5 () Int)
(declare-fun cell_5_5 () Int)
(declare-fun cell_6_5 () Int)
(declare-fun cell_7_5 () Int)
(declare-fun cell_8_5 () Int)
(declare-fun cell_9_5 () Int)
(declare-fun cell_1_6 () Int)
(declare-fun cell_2_6 () Int)
(declare-fun cell_3_6 () Int)
(declare-fun cell_4_6 () Int)
(declare-fun cell_5_6 () Int)
(declare-fun cell_6_6 () Int)
(declare-fun cell_7_6 () Int)
(declare-fun cell_8_6 () Int)
(declare-fun cell_9_6 () Int)
(declare-fun cell_1_7 () Int)
(declare-fun cell_2_7 () Int)
(declare-fun cell_3_7 () Int)
(declare-fun cell_4_7 () Int)
(declare-fun cell_5_7 () Int)
(declare-fun cell_6_7 () Int)
(declare-fun cell_7_7 () Int)
(declare-fun cell_8_7 () Int)
(declare-fun cell_9_7 () Int)
(declare-fun cell_1_8 () Int)
(declare-fun cell_2_8 () Int)
(declare-fun cell_3_8 () Int)
(declare-fun cell_4_8 () Int)
(declare-fun cell_5_8 () Int)
(declare-fun cell_6_8 () Int)
(declare-fun cell_7_8 () Int)
(declare-fun cell_8_8 () Int)
(declare-fun cell_9_8 () Int)
(declare-fun cell_1_9 () Int)
(declare-fun cell_2_9 () Int)
(declare-fun cell_3_9 () Int)
(declare-fun cell_4_9 () Int)
(declare-fun cell_5_9 () Int)
(declare-fun cell_6_9 () Int)
(declare-fun cell_7_9 () Int)
(declare-fun cell_8_9 () Int)
(declare-fun cell_9_9 () Int)
(assert
 (let (($x1945 (= cell_1_1 9)))
 (let (($x5911 (= cell_1_1 8)))
 (let (($x3024 (= cell_1_1 7)))
 (let (($x6415 (= cell_1_1 6)))
 (let (($x3590 (= cell_1_1 5)))
 (let (($x8144 (= cell_1_1 4)))
 (let (($x2062 (= cell_1_1 3)))
 (let (($x8998 (= cell_1_1 2)))
 (let (($x640 (= cell_1_1 1)))
 (or $x640 $x8998 $x2062 $x8144 $x3590 $x6415 $x3024 $x5911 $x1945)))))))))))
(assert
 (let (($x8304 (= cell_2_1 9)))
 (let (($x2483 (= cell_2_1 8)))
 (let (($x893 (= cell_2_1 7)))
 (let (($x8852 (= cell_2_1 6)))
 (let (($x3720 (= cell_2_1 5)))
 (let (($x7955 (= cell_2_1 4)))
 (let (($x8618 (= cell_2_1 3)))
 (let (($x7271 (= cell_2_1 2)))
 (let (($x3716 (= cell_2_1 1)))
 (or $x3716 $x7271 $x8618 $x7955 $x3720 $x8852 $x893 $x2483 $x8304)))))))))))
(assert
 (let (($x1698 (= cell_3_1 9)))
 (let (($x1046 (= cell_3_1 8)))
 (let (($x327 (= cell_3_1 7)))
 (let (($x9501 (= cell_3_1 6)))
 (let (($x2921 (= cell_3_1 5)))
 (let (($x8284 (= cell_3_1 4)))
 (let (($x10243 (= cell_3_1 3)))
 (let (($x6404 (= cell_3_1 2)))
 (let (($x1157 (= cell_3_1 1)))
 (or $x1157 $x6404 $x10243 $x8284 $x2921 $x9501 $x327 $x1046 $x1698)))))))))))
(assert
 (let (($x2103 (= cell_4_1 9)))
 (let (($x6551 (= cell_4_1 8)))
 (let (($x2476 (= cell_4_1 7)))
 (let (($x1214 (= cell_4_1 6)))
 (let (($x2332 (= cell_4_1 5)))
 (let (($x3753 (= cell_4_1 4)))
 (let (($x8748 (= cell_4_1 3)))
 (let (($x5385 (= cell_4_1 2)))
 (let (($x8170 (= cell_4_1 1)))
 (or $x8170 $x5385 $x8748 $x3753 $x2332 $x1214 $x2476 $x6551 $x2103)))))))))))
(assert
 (let (($x2601 (= cell_5_1 9)))
 (let (($x445 (= cell_5_1 8)))
 (let (($x1766 (= cell_5_1 7)))
 (let (($x2900 (= cell_5_1 6)))
 (let (($x2291 (= cell_5_1 5)))
 (let (($x5455 (= cell_5_1 4)))
 (let (($x8697 (= cell_5_1 3)))
 (let (($x3737 (= cell_5_1 2)))
 (let (($x3641 (= cell_5_1 1)))
 (or $x3641 $x3737 $x8697 $x5455 $x2291 $x2900 $x1766 $x445 $x2601)))))))))))
(assert
 (let (($x3965 (= cell_6_1 9)))
 (let (($x9054 (= cell_6_1 8)))
 (let (($x5526 (= cell_6_1 7)))
 (let (($x9449 (= cell_6_1 6)))
 (let (($x6641 (= cell_6_1 5)))
 (let (($x902 (= cell_6_1 4)))
 (let (($x1815 (= cell_6_1 3)))
 (let (($x735 (= cell_6_1 2)))
 (let (($x9617 (= cell_6_1 1)))
 (or $x9617 $x735 $x1815 $x902 $x6641 $x9449 $x5526 $x9054 $x3965)))))))))))
(assert
 (let (($x7606 (= cell_7_1 9)))
 (let (($x8598 (= cell_7_1 8)))
 (let (($x3416 (= cell_7_1 7)))
 (let (($x2786 (= cell_7_1 6)))
 (let (($x6607 (= cell_7_1 5)))
 (let (($x2969 (= cell_7_1 4)))
 (let (($x71 (= cell_7_1 3)))
 (let (($x1469 (= cell_7_1 2)))
 (let (($x1479 (= cell_7_1 1)))
 (or $x1479 $x1469 $x71 $x2969 $x6607 $x2786 $x3416 $x8598 $x7606)))))))))))
(assert
 (let (($x9013 (= cell_8_1 9)))
 (let (($x2525 (= cell_8_1 8)))
 (let (($x5641 (= cell_8_1 7)))
 (let (($x3842 (= cell_8_1 6)))
 (let (($x3034 (= cell_8_1 5)))
 (let (($x9854 (= cell_8_1 4)))
 (let (($x1648 (= cell_8_1 3)))
 (let (($x5388 (= cell_8_1 2)))
 (let (($x4586 (= cell_8_1 1)))
 (or $x4586 $x5388 $x1648 $x9854 $x3034 $x3842 $x5641 $x2525 $x9013)))))))))))
(assert
 (let (($x3180 (= cell_9_1 9)))
 (let (($x780 (= cell_9_1 8)))
 (let (($x8721 (= cell_9_1 7)))
 (let (($x8143 (= cell_9_1 6)))
 (let (($x9444 (= cell_9_1 5)))
 (let (($x4786 (= cell_9_1 4)))
 (let (($x5549 (= cell_9_1 3)))
 (let (($x3379 (= cell_9_1 2)))
 (let (($x6373 (= cell_9_1 1)))
 (or $x6373 $x3379 $x5549 $x4786 $x9444 $x8143 $x8721 $x780 $x3180)))))))))))
(assert
 (let (($x3636 (= cell_1_2 9)))
 (let (($x7628 (= cell_1_2 8)))
 (let (($x929 (= cell_1_2 7)))
 (let (($x1002 (= cell_1_2 6)))
 (let (($x6267 (= cell_1_2 5)))
 (let (($x5701 (= cell_1_2 4)))
 (let (($x5127 (= cell_1_2 3)))
 (let (($x861 (= cell_1_2 2)))
 (let (($x6986 (= cell_1_2 1)))
 (or $x6986 $x861 $x5127 $x5701 $x6267 $x1002 $x929 $x7628 $x3636)))))))))))
(assert
 (let (($x1762 (= cell_2_2 9)))
 (let (($x7050 (= cell_2_2 8)))
 (let (($x2195 (= cell_2_2 7)))
 (let (($x6078 (= cell_2_2 6)))
 (let (($x1861 (= cell_2_2 5)))
 (let (($x8764 (= cell_2_2 4)))
 (let (($x434 (= cell_2_2 3)))
 (let (($x4526 (= cell_2_2 2)))
 (let (($x771 (= cell_2_2 1)))
 (or $x771 $x4526 $x434 $x8764 $x1861 $x6078 $x2195 $x7050 $x1762)))))))))))
(assert
 (let (($x6914 (= cell_3_2 9)))
 (let (($x4041 (= cell_3_2 8)))
 (let (($x7119 (= cell_3_2 7)))
 (let (($x5547 (= cell_3_2 6)))
 (let (($x1305 (= cell_3_2 5)))
 (let (($x5049 (= cell_3_2 4)))
 (let (($x769 (= cell_3_2 3)))
 (let (($x4913 (= cell_3_2 2)))
 (let (($x1916 (= cell_3_2 1)))
 (or $x1916 $x4913 $x769 $x5049 $x1305 $x5547 $x7119 $x4041 $x6914)))))))))))
(assert
 (let (($x4257 (= cell_4_2 9)))
 (let (($x3066 (= cell_4_2 8)))
 (let (($x4569 (= cell_4_2 7)))
 (let (($x8539 (= cell_4_2 6)))
 (let (($x8002 (= cell_4_2 5)))
 (let (($x3062 (= cell_4_2 4)))
 (let (($x1224 (= cell_4_2 3)))
 (let (($x9316 (= cell_4_2 2)))
 (let (($x9613 (= cell_4_2 1)))
 (or $x9613 $x9316 $x1224 $x3062 $x8002 $x8539 $x4569 $x3066 $x4257)))))))))))
(assert
 (let (($x8340 (= cell_5_2 9)))
 (let (($x3919 (= cell_5_2 8)))
 (let (($x9228 (= cell_5_2 7)))
 (let (($x3281 (= cell_5_2 6)))
 (let (($x547 (= cell_5_2 5)))
 (let (($x3127 (= cell_5_2 4)))
 (let (($x8880 (= cell_5_2 3)))
 (let (($x2822 (= cell_5_2 2)))
 (let (($x7069 (= cell_5_2 1)))
 (or $x7069 $x2822 $x8880 $x3127 $x547 $x3281 $x9228 $x3919 $x8340)))))))))))
(assert
 (let (($x4203 (= cell_6_2 9)))
 (let (($x5794 (= cell_6_2 8)))
 (let (($x4264 (= cell_6_2 7)))
 (let (($x8075 (= cell_6_2 6)))
 (let (($x2520 (= cell_6_2 5)))
 (let (($x10208 (= cell_6_2 4)))
 (let (($x2269 (= cell_6_2 3)))
 (let (($x602 (= cell_6_2 2)))
 (let (($x4734 (= cell_6_2 1)))
 (or $x4734 $x602 $x2269 $x10208 $x2520 $x8075 $x4264 $x5794 $x4203)))))))))))
(assert
 (let (($x9788 (= cell_7_2 9)))
 (let (($x7323 (= cell_7_2 8)))
 (let (($x2087 (= cell_7_2 7)))
 (let (($x3574 (= cell_7_2 6)))
 (let (($x9115 (= cell_7_2 5)))
 (let (($x8388 (= cell_7_2 4)))
 (let (($x816 (= cell_7_2 3)))
 (let (($x9850 (= cell_7_2 2)))
 (let (($x9590 (= cell_7_2 1)))
 (or $x9590 $x9850 $x816 $x8388 $x9115 $x3574 $x2087 $x7323 $x9788)))))))))))
(assert
 (let (($x3656 (= cell_8_2 9)))
 (let (($x6154 (= cell_8_2 8)))
 (let (($x2393 (= cell_8_2 7)))
 (let (($x9985 (= cell_8_2 6)))
 (let (($x3033 (= cell_8_2 5)))
 (let (($x8483 (= cell_8_2 4)))
 (let (($x1255 (= cell_8_2 3)))
 (let (($x4842 (= cell_8_2 2)))
 (let (($x8276 (= cell_8_2 1)))
 (or $x8276 $x4842 $x1255 $x8483 $x3033 $x9985 $x2393 $x6154 $x3656)))))))))))
(assert
 (let (($x7928 (= cell_9_2 9)))
 (let (($x5927 (= cell_9_2 8)))
 (let (($x5496 (= cell_9_2 7)))
 (let (($x9200 (= cell_9_2 6)))
 (let (($x4327 (= cell_9_2 5)))
 (let (($x6333 (= cell_9_2 4)))
 (let (($x7869 (= cell_9_2 3)))
 (let (($x8063 (= cell_9_2 2)))
 (let (($x5597 (= cell_9_2 1)))
 (or $x5597 $x8063 $x7869 $x6333 $x4327 $x9200 $x5496 $x5927 $x7928)))))))))))
(assert
 (let (($x1533 (= cell_1_3 9)))
 (let (($x8062 (= cell_1_3 8)))
 (let (($x4853 (= cell_1_3 7)))
 (let (($x6817 (= cell_1_3 6)))
 (let (($x202 (= cell_1_3 5)))
 (let (($x3231 (= cell_1_3 4)))
 (let (($x5603 (= cell_1_3 3)))
 (let (($x831 (= cell_1_3 2)))
 (let (($x804 (= cell_1_3 1)))
 (or $x804 $x831 $x5603 $x3231 $x202 $x6817 $x4853 $x8062 $x1533)))))))))))
(assert
 (let (($x2479 (= cell_2_3 9)))
 (let (($x313 (= cell_2_3 8)))
 (let (($x9311 (= cell_2_3 7)))
 (let (($x3300 (= cell_2_3 6)))
 (let (($x232 (= cell_2_3 5)))
 (let (($x8586 (= cell_2_3 4)))
 (let (($x1687 (= cell_2_3 3)))
 (let (($x1674 (= cell_2_3 2)))
 (let (($x9012 (= cell_2_3 1)))
 (or $x9012 $x1674 $x1687 $x8586 $x232 $x3300 $x9311 $x313 $x2479)))))))))))
(assert
 (let (($x249 (= cell_3_3 9)))
 (let (($x6542 (= cell_3_3 8)))
 (let (($x9819 (= cell_3_3 7)))
 (let (($x4107 (= cell_3_3 6)))
 (let (($x3167 (= cell_3_3 5)))
 (let (($x4071 (= cell_3_3 4)))
 (let (($x7094 (= cell_3_3 3)))
 (let (($x1354 (= cell_3_3 2)))
 (let (($x5659 (= cell_3_3 1)))
 (or $x5659 $x1354 $x7094 $x4071 $x3167 $x4107 $x9819 $x6542 $x249)))))))))))
(assert
 (let (($x2167 (= cell_4_3 9)))
 (let (($x4322 (= cell_4_3 8)))
 (let (($x2432 (= cell_4_3 7)))
 (let (($x6276 (= cell_4_3 6)))
 (let (($x8523 (= cell_4_3 5)))
 (let (($x5976 (= cell_4_3 4)))
 (let (($x7509 (= cell_4_3 3)))
 (let (($x362 (= cell_4_3 2)))
 (let (($x6571 (= cell_4_3 1)))
 (or $x6571 $x362 $x7509 $x5976 $x8523 $x6276 $x2432 $x4322 $x2167)))))))))))
(assert
 (let (($x9450 (= cell_5_3 9)))
 (let (($x9136 (= cell_5_3 8)))
 (let (($x6789 (= cell_5_3 7)))
 (let (($x2965 (= cell_5_3 6)))
 (let (($x3157 (= cell_5_3 5)))
 (let (($x7622 (= cell_5_3 4)))
 (let (($x8605 (= cell_5_3 3)))
 (let (($x1283 (= cell_5_3 2)))
 (let (($x5926 (= cell_5_3 1)))
 (or $x5926 $x1283 $x8605 $x7622 $x3157 $x2965 $x6789 $x9136 $x9450)))))))))))
(assert
 (let (($x4151 (= cell_6_3 9)))
 (let (($x295 (= cell_6_3 8)))
 (let (($x6842 (= cell_6_3 7)))
 (let (($x4433 (= cell_6_3 6)))
 (let (($x2166 (= cell_6_3 5)))
 (let (($x8315 (= cell_6_3 4)))
 (let (($x4546 (= cell_6_3 3)))
 (let (($x6902 (= cell_6_3 2)))
 (let (($x8700 (= cell_6_3 1)))
 (or $x8700 $x6902 $x4546 $x8315 $x2166 $x4433 $x6842 $x295 $x4151)))))))))))
(assert
 (let (($x7001 (= cell_7_3 9)))
 (let (($x9291 (= cell_7_3 8)))
 (let (($x7484 (= cell_7_3 7)))
 (let (($x5872 (= cell_7_3 6)))
 (let (($x2879 (= cell_7_3 5)))
 (let (($x9146 (= cell_7_3 4)))
 (let (($x9270 (= cell_7_3 3)))
 (let (($x4656 (= cell_7_3 2)))
 (let (($x955 (= cell_7_3 1)))
 (or $x955 $x4656 $x9270 $x9146 $x2879 $x5872 $x7484 $x9291 $x7001)))))))))))
(assert
 (let (($x841 (= cell_8_3 9)))
 (let (($x2734 (= cell_8_3 8)))
 (let (($x1704 (= cell_8_3 7)))
 (let (($x6210 (= cell_8_3 6)))
 (let (($x4224 (= cell_8_3 5)))
 (let (($x8084 (= cell_8_3 4)))
 (let (($x3972 (= cell_8_3 3)))
 (let (($x5478 (= cell_8_3 2)))
 (let (($x6508 (= cell_8_3 1)))
 (or $x6508 $x5478 $x3972 $x8084 $x4224 $x6210 $x1704 $x2734 $x841)))))))))))
(assert
 (let (($x5436 (= cell_9_3 9)))
 (let (($x8204 (= cell_9_3 8)))
 (let (($x7293 (= cell_9_3 7)))
 (let (($x5199 (= cell_9_3 6)))
 (let (($x8837 (= cell_9_3 5)))
 (let (($x3372 (= cell_9_3 4)))
 (let (($x3153 (= cell_9_3 3)))
 (let (($x7835 (= cell_9_3 2)))
 (let (($x3432 (= cell_9_3 1)))
 (or $x3432 $x7835 $x3153 $x3372 $x8837 $x5199 $x7293 $x8204 $x5436)))))))))))
(assert
 (let (($x7318 (= cell_1_4 9)))
 (let (($x5805 (= cell_1_4 8)))
 (let (($x8138 (= cell_1_4 7)))
 (let (($x6878 (= cell_1_4 6)))
 (let (($x5363 (= cell_1_4 5)))
 (let (($x9599 (= cell_1_4 4)))
 (let (($x9319 (= cell_1_4 3)))
 (let (($x3096 (= cell_1_4 2)))
 (let (($x3566 (= cell_1_4 1)))
 (or $x3566 $x3096 $x9319 $x9599 $x5363 $x6878 $x8138 $x5805 $x7318)))))))))))
(assert
 (let (($x3240 (= cell_2_4 9)))
 (let (($x5869 (= cell_2_4 8)))
 (let (($x6259 (= cell_2_4 7)))
 (let (($x57 (= cell_2_4 6)))
 (let (($x8939 (= cell_2_4 5)))
 (let (($x4616 (= cell_2_4 4)))
 (let (($x8412 (= cell_2_4 3)))
 (let (($x8664 (= cell_2_4 2)))
 (let (($x8086 (= cell_2_4 1)))
 (or $x8086 $x8664 $x8412 $x4616 $x8939 $x57 $x6259 $x5869 $x3240)))))))))))
(assert
 (let (($x4872 (= cell_3_4 9)))
 (let (($x9924 (= cell_3_4 8)))
 (let (($x945 (= cell_3_4 7)))
 (let (($x7472 (= cell_3_4 6)))
 (let (($x7573 (= cell_3_4 5)))
 (let (($x5400 (= cell_3_4 4)))
 (let (($x5410 (= cell_3_4 3)))
 (let (($x2753 (= cell_3_4 2)))
 (let (($x8629 (= cell_3_4 1)))
 (or $x8629 $x2753 $x5410 $x5400 $x7573 $x7472 $x945 $x9924 $x4872)))))))))))
(assert
 (let (($x6632 (= cell_4_4 9)))
 (let (($x4942 (= cell_4_4 8)))
 (let (($x3209 (= cell_4_4 7)))
 (let (($x5116 (= cell_4_4 6)))
 (let (($x4593 (= cell_4_4 5)))
 (let (($x1292 (= cell_4_4 4)))
 (let (($x9543 (= cell_4_4 3)))
 (let (($x3207 (= cell_4_4 2)))
 (let (($x6107 (= cell_4_4 1)))
 (or $x6107 $x3207 $x9543 $x1292 $x4593 $x5116 $x3209 $x4942 $x6632)))))))))))
(assert
 (let (($x6167 (= cell_5_4 9)))
 (let (($x1200 (= cell_5_4 8)))
 (let (($x6886 (= cell_5_4 7)))
 (let (($x7759 (= cell_5_4 6)))
 (let (($x5451 (= cell_5_4 5)))
 (let (($x8736 (= cell_5_4 4)))
 (let (($x1901 (= cell_5_4 3)))
 (let (($x10175 (= cell_5_4 2)))
 (let (($x6630 (= cell_5_4 1)))
 (or $x6630 $x10175 $x1901 $x8736 $x5451 $x7759 $x6886 $x1200 $x6167)))))))))))
(assert
 (let (($x521 (= cell_6_4 9)))
 (let (($x7217 (= cell_6_4 8)))
 (let (($x9359 (= cell_6_4 7)))
 (let (($x6225 (= cell_6_4 6)))
 (let (($x2839 (= cell_6_4 5)))
 (let (($x61 (= cell_6_4 4)))
 (let (($x2863 (= cell_6_4 3)))
 (let (($x5069 (= cell_6_4 2)))
 (let (($x2918 (= cell_6_4 1)))
 (or $x2918 $x5069 $x2863 $x61 $x2839 $x6225 $x9359 $x7217 $x521)))))))))))
(assert
 (let (($x9642 (= cell_7_4 9)))
 (let (($x5685 (= cell_7_4 8)))
 (let (($x7049 (= cell_7_4 7)))
 (let (($x9244 (= cell_7_4 6)))
 (let (($x10211 (= cell_7_4 5)))
 (let (($x9411 (= cell_7_4 4)))
 (let (($x9956 (= cell_7_4 3)))
 (let (($x2678 (= cell_7_4 2)))
 (let (($x3128 (= cell_7_4 1)))
 (or $x3128 $x2678 $x9956 $x9411 $x10211 $x9244 $x7049 $x5685 $x9642)))))))))))
(assert
 (let (($x7281 (= cell_8_4 9)))
 (let (($x1555 (= cell_8_4 8)))
 (let (($x2691 (= cell_8_4 7)))
 (let (($x5660 (= cell_8_4 6)))
 (let (($x873 (= cell_8_4 5)))
 (let (($x908 (= cell_8_4 4)))
 (let (($x4277 (= cell_8_4 3)))
 (let (($x9787 (= cell_8_4 2)))
 (let (($x4087 (= cell_8_4 1)))
 (or $x4087 $x9787 $x4277 $x908 $x873 $x5660 $x2691 $x1555 $x7281)))))))))))
(assert
 (let (($x3018 (= cell_9_4 9)))
 (let (($x3241 (= cell_9_4 8)))
 (let (($x7885 (= cell_9_4 7)))
 (let (($x5392 (= cell_9_4 6)))
 (let (($x6619 (= cell_9_4 5)))
 (let (($x5915 (= cell_9_4 4)))
 (let (($x9561 (= cell_9_4 3)))
 (let (($x2853 (= cell_9_4 2)))
 (let (($x3185 (= cell_9_4 1)))
 (or $x3185 $x2853 $x9561 $x5915 $x6619 $x5392 $x7885 $x3241 $x3018)))))))))))
(assert
 (let (($x6956 (= cell_1_5 9)))
 (let (($x6946 (= cell_1_5 8)))
 (let (($x5053 (= cell_1_5 7)))
 (let (($x3391 (= cell_1_5 6)))
 (let (($x6853 (= cell_1_5 5)))
 (let (($x909 (= cell_1_5 4)))
 (let (($x7956 (= cell_1_5 3)))
 (let (($x5242 (= cell_1_5 2)))
 (let (($x8290 (= cell_1_5 1)))
 (or $x8290 $x5242 $x7956 $x909 $x6853 $x3391 $x5053 $x6946 $x6956)))))))))))
(assert
 (let (($x9592 (= cell_2_5 9)))
 (let (($x1184 (= cell_2_5 8)))
 (let (($x1223 (= cell_2_5 7)))
 (let (($x9355 (= cell_2_5 6)))
 (let (($x9173 (= cell_2_5 5)))
 (let (($x9840 (= cell_2_5 4)))
 (let (($x8557 (= cell_2_5 3)))
 (let (($x5135 (= cell_2_5 2)))
 (let (($x1779 (= cell_2_5 1)))
 (or $x1779 $x5135 $x8557 $x9840 $x9173 $x9355 $x1223 $x1184 $x9592)))))))))))
(assert
 (let (($x9171 (= cell_3_5 9)))
 (let (($x3837 (= cell_3_5 8)))
 (let (($x3264 (= cell_3_5 7)))
 (let (($x6408 (= cell_3_5 6)))
 (let (($x1049 (= cell_3_5 5)))
 (let (($x3991 (= cell_3_5 4)))
 (let (($x5219 (= cell_3_5 3)))
 (let (($x8529 (= cell_3_5 2)))
 (let (($x4321 (= cell_3_5 1)))
 (or $x4321 $x8529 $x5219 $x3991 $x1049 $x6408 $x3264 $x3837 $x9171)))))))))))
(assert
 (let (($x911 (= cell_4_5 9)))
 (let (($x5175 (= cell_4_5 8)))
 (let (($x1446 (= cell_4_5 7)))
 (let (($x5513 (= cell_4_5 6)))
 (let (($x5637 (= cell_4_5 5)))
 (let (($x7643 (= cell_4_5 4)))
 (let (($x617 (= cell_4_5 3)))
 (let (($x5492 (= cell_4_5 2)))
 (let (($x9243 (= cell_4_5 1)))
 (or $x9243 $x5492 $x617 $x7643 $x5637 $x5513 $x1446 $x5175 $x911)))))))))))
(assert
 (let (($x9751 (= cell_5_5 9)))
 (let (($x21 (= cell_5_5 8)))
 (let (($x6367 (= cell_5_5 7)))
 (let (($x1927 (= cell_5_5 6)))
 (let (($x5628 (= cell_5_5 5)))
 (let (($x6746 (= cell_5_5 4)))
 (let (($x10136 (= cell_5_5 3)))
 (let (($x235 (= cell_5_5 2)))
 (let (($x1147 (= cell_5_5 1)))
 (or $x1147 $x235 $x10136 $x6746 $x5628 $x1927 $x6367 $x21 $x9751)))))))))))
(assert
 (let (($x5766 (= cell_6_5 9)))
 (let (($x203 (= cell_6_5 8)))
 (let (($x2192 (= cell_6_5 7)))
 (let (($x8543 (= cell_6_5 6)))
 (let (($x5164 (= cell_6_5 5)))
 (let (($x3099 (= cell_6_5 4)))
 (let (($x5591 (= cell_6_5 3)))
 (let (($x6871 (= cell_6_5 2)))
 (let (($x4409 (= cell_6_5 1)))
 (or $x4409 $x6871 $x5591 $x3099 $x5164 $x8543 $x2192 $x203 $x5766)))))))))))
(assert
 (let (($x8791 (= cell_7_5 9)))
 (let (($x4166 (= cell_7_5 8)))
 (let (($x7413 (= cell_7_5 7)))
 (let (($x10049 (= cell_7_5 6)))
 (let (($x699 (= cell_7_5 5)))
 (let (($x3295 (= cell_7_5 4)))
 (let (($x1904 (= cell_7_5 3)))
 (let (($x9296 (= cell_7_5 2)))
 (let (($x3751 (= cell_7_5 1)))
 (or $x3751 $x9296 $x1904 $x3295 $x699 $x10049 $x7413 $x4166 $x8791)))))))))))
(assert
 (let (($x6038 (= cell_8_5 9)))
 (let (($x1457 (= cell_8_5 8)))
 (let (($x2154 (= cell_8_5 7)))
 (let (($x1414 (= cell_8_5 6)))
 (let (($x2833 (= cell_8_5 5)))
 (let (($x5333 (= cell_8_5 4)))
 (let (($x4808 (= cell_8_5 3)))
 (let (($x6612 (= cell_8_5 2)))
 (let (($x2442 (= cell_8_5 1)))
 (or $x2442 $x6612 $x4808 $x5333 $x2833 $x1414 $x2154 $x1457 $x6038)))))))))))
(assert
 (let (($x7544 (= cell_9_5 9)))
 (let (($x6727 (= cell_9_5 8)))
 (let (($x5763 (= cell_9_5 7)))
 (let (($x3960 (= cell_9_5 6)))
 (let (($x7833 (= cell_9_5 5)))
 (let (($x2932 (= cell_9_5 4)))
 (let (($x6830 (= cell_9_5 3)))
 (let (($x1763 (= cell_9_5 2)))
 (let (($x8149 (= cell_9_5 1)))
 (or $x8149 $x1763 $x6830 $x2932 $x7833 $x3960 $x5763 $x6727 $x7544)))))))))))
(assert
 (let (($x788 (= cell_1_6 9)))
 (let (($x7418 (= cell_1_6 8)))
 (let (($x3202 (= cell_1_6 7)))
 (let (($x4011 (= cell_1_6 6)))
 (let (($x3647 (= cell_1_6 5)))
 (let (($x4001 (= cell_1_6 4)))
 (let (($x3084 (= cell_1_6 3)))
 (let (($x3017 (= cell_1_6 2)))
 (let (($x522 (= cell_1_6 1)))
 (or $x522 $x3017 $x3084 $x4001 $x3647 $x4011 $x3202 $x7418 $x788)))))))))))
(assert
 (let (($x2064 (= cell_2_6 9)))
 (let (($x4168 (= cell_2_6 8)))
 (let (($x1230 (= cell_2_6 7)))
 (let (($x2958 (= cell_2_6 6)))
 (let (($x1026 (= cell_2_6 5)))
 (let (($x2163 (= cell_2_6 4)))
 (let (($x4784 (= cell_2_6 3)))
 (let (($x6668 (= cell_2_6 2)))
 (let (($x2886 (= cell_2_6 1)))
 (or $x2886 $x6668 $x4784 $x2163 $x1026 $x2958 $x1230 $x4168 $x2064)))))))))))
(assert
 (let (($x2268 (= cell_3_6 9)))
 (let (($x8800 (= cell_3_6 8)))
 (let (($x2603 (= cell_3_6 7)))
 (let (($x3796 (= cell_3_6 6)))
 (let (($x2094 (= cell_3_6 5)))
 (let (($x7518 (= cell_3_6 4)))
 (let (($x3470 (= cell_3_6 3)))
 (let (($x4849 (= cell_3_6 2)))
 (let (($x4061 (= cell_3_6 1)))
 (or $x4061 $x4849 $x3470 $x7518 $x2094 $x3796 $x2603 $x8800 $x2268)))))))))))
(assert
 (let (($x2577 (= cell_4_6 9)))
 (let (($x7141 (= cell_4_6 8)))
 (let (($x2044 (= cell_4_6 7)))
 (let (($x4517 (= cell_4_6 6)))
 (let (($x9720 (= cell_4_6 5)))
 (let (($x3600 (= cell_4_6 4)))
 (let (($x793 (= cell_4_6 3)))
 (let (($x3981 (= cell_4_6 2)))
 (let (($x7333 (= cell_4_6 1)))
 (or $x7333 $x3981 $x793 $x3600 $x9720 $x4517 $x2044 $x7141 $x2577)))))))))))
(assert
 (let (($x2280 (= cell_5_6 9)))
 (let (($x8307 (= cell_5_6 8)))
 (let (($x6581 (= cell_5_6 7)))
 (let (($x8905 (= cell_5_6 6)))
 (let (($x3164 (= cell_5_6 5)))
 (let (($x7566 (= cell_5_6 4)))
 (let (($x9072 (= cell_5_6 3)))
 (let (($x5949 (= cell_5_6 2)))
 (let (($x4662 (= cell_5_6 1)))
 (or $x4662 $x5949 $x9072 $x7566 $x3164 $x8905 $x6581 $x8307 $x2280)))))))))))
(assert
 (let (($x5506 (= cell_6_6 9)))
 (let (($x8323 (= cell_6_6 8)))
 (let (($x4572 (= cell_6_6 7)))
 (let (($x3179 (= cell_6_6 6)))
 (let (($x6876 (= cell_6_6 5)))
 (let (($x1439 (= cell_6_6 4)))
 (let (($x2702 (= cell_6_6 3)))
 (let (($x2299 (= cell_6_6 2)))
 (let (($x7233 (= cell_6_6 1)))
 (or $x7233 $x2299 $x2702 $x1439 $x6876 $x3179 $x4572 $x8323 $x5506)))))))))))
(assert
 (let (($x2423 (= cell_7_6 9)))
 (let (($x8793 (= cell_7_6 8)))
 (let (($x5885 (= cell_7_6 7)))
 (let (($x9328 (= cell_7_6 6)))
 (let (($x7263 (= cell_7_6 5)))
 (let (($x2680 (= cell_7_6 4)))
 (let (($x4083 (= cell_7_6 3)))
 (let (($x3597 (= cell_7_6 2)))
 (let (($x3986 (= cell_7_6 1)))
 (or $x3986 $x3597 $x4083 $x2680 $x7263 $x9328 $x5885 $x8793 $x2423)))))))))))
(assert
 (let (($x4928 (= cell_8_6 9)))
 (let (($x6464 (= cell_8_6 8)))
 (let (($x608 (= cell_8_6 7)))
 (let (($x530 (= cell_8_6 6)))
 (let (($x1403 (= cell_8_6 5)))
 (let (($x9121 (= cell_8_6 4)))
 (let (($x1876 (= cell_8_6 3)))
 (let (($x4421 (= cell_8_6 2)))
 (let (($x7422 (= cell_8_6 1)))
 (or $x7422 $x4421 $x1876 $x9121 $x1403 $x530 $x608 $x6464 $x4928)))))))))))
(assert
 (let (($x3827 (= cell_9_6 9)))
 (let (($x8395 (= cell_9_6 8)))
 (let (($x145 (= cell_9_6 7)))
 (let (($x9036 (= cell_9_6 6)))
 (let (($x7548 (= cell_9_6 5)))
 (let (($x8808 (= cell_9_6 4)))
 (let (($x9396 (= cell_9_6 3)))
 (let (($x8626 (= cell_9_6 2)))
 (let (($x494 (= cell_9_6 1)))
 (or $x494 $x8626 $x9396 $x8808 $x7548 $x9036 $x145 $x8395 $x3827)))))))))))
(assert
 (let (($x5680 (= cell_1_7 9)))
 (let (($x4269 (= cell_1_7 8)))
 (let (($x6767 (= cell_1_7 7)))
 (let (($x854 (= cell_1_7 6)))
 (let (($x7078 (= cell_1_7 5)))
 (let (($x2990 (= cell_1_7 4)))
 (let (($x7061 (= cell_1_7 3)))
 (let (($x8734 (= cell_1_7 2)))
 (let (($x8380 (= cell_1_7 1)))
 (or $x8380 $x8734 $x7061 $x2990 $x7078 $x854 $x6767 $x4269 $x5680)))))))))))
(assert
 (let (($x2829 (= cell_2_7 9)))
 (let (($x9206 (= cell_2_7 8)))
 (let (($x5360 (= cell_2_7 7)))
 (let (($x1679 (= cell_2_7 6)))
 (let (($x7430 (= cell_2_7 5)))
 (let (($x6212 (= cell_2_7 4)))
 (let (($x3005 (= cell_2_7 3)))
 (let (($x360 (= cell_2_7 2)))
 (let (($x3027 (= cell_2_7 1)))
 (or $x3027 $x360 $x3005 $x6212 $x7430 $x1679 $x5360 $x9206 $x2829)))))))))))
(assert
 (let (($x5072 (= cell_3_7 9)))
 (let (($x3718 (= cell_3_7 8)))
 (let (($x2643 (= cell_3_7 7)))
 (let (($x5485 (= cell_3_7 6)))
 (let (($x8035 (= cell_3_7 5)))
 (let (($x1104 (= cell_3_7 4)))
 (let (($x959 (= cell_3_7 3)))
 (let (($x8761 (= cell_3_7 2)))
 (let (($x103 (= cell_3_7 1)))
 (or $x103 $x8761 $x959 $x1104 $x8035 $x5485 $x2643 $x3718 $x5072)))))))))))
(assert
 (let (($x7898 (= cell_4_7 9)))
 (let (($x83 (= cell_4_7 8)))
 (let (($x4994 (= cell_4_7 7)))
 (let (($x2887 (= cell_4_7 6)))
 (let (($x6482 (= cell_4_7 5)))
 (let (($x125 (= cell_4_7 4)))
 (let (($x5376 (= cell_4_7 3)))
 (let (($x6839 (= cell_4_7 2)))
 (let (($x3894 (= cell_4_7 1)))
 (or $x3894 $x6839 $x5376 $x125 $x6482 $x2887 $x4994 $x83 $x7898)))))))))))
(assert
 (let (($x473 (= cell_5_7 9)))
 (let (($x4558 (= cell_5_7 8)))
 (let (($x1871 (= cell_5_7 7)))
 (let (($x8927 (= cell_5_7 6)))
 (let (($x7431 (= cell_5_7 5)))
 (let (($x4246 (= cell_5_7 4)))
 (let (($x1491 (= cell_5_7 3)))
 (let (($x3188 (= cell_5_7 2)))
 (let (($x2755 (= cell_5_7 1)))
 (or $x2755 $x3188 $x1491 $x4246 $x7431 $x8927 $x1871 $x4558 $x473)))))))))))
(assert
 (let (($x8232 (= cell_6_7 9)))
 (let (($x9742 (= cell_6_7 8)))
 (let (($x8980 (= cell_6_7 7)))
 (let (($x415 (= cell_6_7 6)))
 (let (($x4063 (= cell_6_7 5)))
 (let (($x8108 (= cell_6_7 4)))
 (let (($x1628 (= cell_6_7 3)))
 (let (($x1334 (= cell_6_7 2)))
 (let (($x7490 (= cell_6_7 1)))
 (or $x7490 $x1334 $x1628 $x8108 $x4063 $x415 $x8980 $x9742 $x8232)))))))))))
(assert
 (let (($x8183 (= cell_7_7 9)))
 (let (($x5871 (= cell_7_7 8)))
 (let (($x6001 (= cell_7_7 7)))
 (let (($x3472 (= cell_7_7 6)))
 (let (($x9342 (= cell_7_7 5)))
 (let (($x5870 (= cell_7_7 4)))
 (let (($x2191 (= cell_7_7 3)))
 (let (($x5935 (= cell_7_7 2)))
 (let (($x7633 (= cell_7_7 1)))
 (or $x7633 $x5935 $x2191 $x5870 $x9342 $x3472 $x6001 $x5871 $x8183)))))))))))
(assert
 (let (($x8206 (= cell_8_7 9)))
 (let (($x1761 (= cell_8_7 8)))
 (let (($x2626 (= cell_8_7 7)))
 (let (($x333 (= cell_8_7 6)))
 (let (($x2955 (= cell_8_7 5)))
 (let (($x4811 (= cell_8_7 4)))
 (let (($x1043 (= cell_8_7 3)))
 (let (($x601 (= cell_8_7 2)))
 (let (($x9518 (= cell_8_7 1)))
 (or $x9518 $x601 $x1043 $x4811 $x2955 $x333 $x2626 $x1761 $x8206)))))))))))
(assert
 (let (($x6071 (= cell_9_7 9)))
 (let (($x791 (= cell_9_7 8)))
 (let (($x6344 (= cell_9_7 7)))
 (let (($x3002 (= cell_9_7 6)))
 (let (($x8359 (= cell_9_7 5)))
 (let (($x3532 (= cell_9_7 4)))
 (let (($x3786 (= cell_9_7 3)))
 (let (($x4234 (= cell_9_7 2)))
 (let (($x8234 (= cell_9_7 1)))
 (or $x8234 $x4234 $x3786 $x3532 $x8359 $x3002 $x6344 $x791 $x6071)))))))))))
(assert
 (let (($x6829 (= cell_1_8 9)))
 (let (($x2135 (= cell_1_8 8)))
 (let (($x1431 (= cell_1_8 7)))
 (let (($x8899 (= cell_1_8 6)))
 (let (($x10190 (= cell_1_8 5)))
 (let (($x9960 (= cell_1_8 4)))
 (let (($x5564 (= cell_1_8 3)))
 (let (($x655 (= cell_1_8 2)))
 (let (($x1593 (= cell_1_8 1)))
 (or $x1593 $x655 $x5564 $x9960 $x10190 $x8899 $x1431 $x2135 $x6829)))))))))))
(assert
 (let (($x9670 (= cell_2_8 9)))
 (let (($x3954 (= cell_2_8 8)))
 (let (($x8193 (= cell_2_8 7)))
 (let (($x3122 (= cell_2_8 6)))
 (let (($x7419 (= cell_2_8 5)))
 (let (($x8872 (= cell_2_8 4)))
 (let (($x5700 (= cell_2_8 3)))
 (let (($x786 (= cell_2_8 2)))
 (let (($x3029 (= cell_2_8 1)))
 (or $x3029 $x786 $x5700 $x8872 $x7419 $x3122 $x8193 $x3954 $x9670)))))))))))
(assert
 (let (($x5458 (= cell_3_8 9)))
 (let (($x4907 (= cell_3_8 8)))
 (let (($x1308 (= cell_3_8 7)))
 (let (($x4114 (= cell_3_8 6)))
 (let (($x5448 (= cell_3_8 5)))
 (let (($x4712 (= cell_3_8 4)))
 (let (($x1620 (= cell_3_8 3)))
 (let (($x9362 (= cell_3_8 2)))
 (let (($x1493 (= cell_3_8 1)))
 (or $x1493 $x9362 $x1620 $x4712 $x5448 $x4114 $x1308 $x4907 $x5458)))))))))))
(assert
 (let (($x4936 (= cell_4_8 9)))
 (let (($x1818 (= cell_4_8 8)))
 (let (($x110 (= cell_4_8 7)))
 (let (($x5170 (= cell_4_8 6)))
 (let (($x6370 (= cell_4_8 5)))
 (let (($x9131 (= cell_4_8 4)))
 (let (($x5039 (= cell_4_8 3)))
 (let (($x5779 (= cell_4_8 2)))
 (let (($x7291 (= cell_4_8 1)))
 (or $x7291 $x5779 $x5039 $x9131 $x6370 $x5170 $x110 $x1818 $x4936)))))))))))
(assert
 (let (($x3657 (= cell_5_8 9)))
 (let (($x7918 (= cell_5_8 8)))
 (let (($x2210 (= cell_5_8 7)))
 (let (($x8974 (= cell_5_8 6)))
 (let (($x9521 (= cell_5_8 5)))
 (let (($x8956 (= cell_5_8 4)))
 (let (($x6200 (= cell_5_8 3)))
 (let (($x7724 (= cell_5_8 2)))
 (let (($x1554 (= cell_5_8 1)))
 (or $x1554 $x7724 $x6200 $x8956 $x9521 $x8974 $x2210 $x7918 $x3657)))))))))))
(assert
 (let (($x4194 (= cell_6_8 9)))
 (let (($x5663 (= cell_6_8 8)))
 (let (($x6379 (= cell_6_8 7)))
 (let (($x926 (= cell_6_8 6)))
 (let (($x9416 (= cell_6_8 5)))
 (let (($x9341 (= cell_6_8 4)))
 (let (($x6358 (= cell_6_8 3)))
 (let (($x8876 (= cell_6_8 2)))
 (let (($x9966 (= cell_6_8 1)))
 (or $x9966 $x8876 $x6358 $x9341 $x9416 $x926 $x6379 $x5663 $x4194)))))))))))
(assert
 (let (($x6193 (= cell_7_8 9)))
 (let (($x6890 (= cell_7_8 8)))
 (let (($x7768 (= cell_7_8 7)))
 (let (($x9041 (= cell_7_8 6)))
 (let (($x3227 (= cell_7_8 5)))
 (let (($x2330 (= cell_7_8 4)))
 (let (($x9336 (= cell_7_8 3)))
 (let (($x8857 (= cell_7_8 2)))
 (let (($x9196 (= cell_7_8 1)))
 (or $x9196 $x8857 $x9336 $x2330 $x3227 $x9041 $x7768 $x6890 $x6193)))))))))))
(assert
 (let (($x7116 (= cell_8_8 9)))
 (let (($x1796 (= cell_8_8 8)))
 (let (($x1959 (= cell_8_8 7)))
 (let (($x3976 (= cell_8_8 6)))
 (let (($x210 (= cell_8_8 5)))
 (let (($x2740 (= cell_8_8 4)))
 (let (($x4953 (= cell_8_8 3)))
 (let (($x1063 (= cell_8_8 2)))
 (let (($x8715 (= cell_8_8 1)))
 (or $x8715 $x1063 $x4953 $x2740 $x210 $x3976 $x1959 $x1796 $x7116)))))))))))
(assert
 (let (($x3411 (= cell_9_8 9)))
 (let (($x485 (= cell_9_8 8)))
 (let (($x5507 (= cell_9_8 7)))
 (let (($x6965 (= cell_9_8 6)))
 (let (($x3318 (= cell_9_8 5)))
 (let (($x1342 (= cell_9_8 4)))
 (let (($x3275 (= cell_9_8 3)))
 (let (($x3119 (= cell_9_8 2)))
 (let (($x3732 (= cell_9_8 1)))
 (or $x3732 $x3119 $x3275 $x1342 $x3318 $x6965 $x5507 $x485 $x3411)))))))))))
(assert
 (let (($x2981 (= cell_1_9 9)))
 (let (($x4147 (= cell_1_9 8)))
 (let (($x3154 (= cell_1_9 7)))
 (let (($x10060 (= cell_1_9 6)))
 (let (($x8959 (= cell_1_9 5)))
 (let (($x7626 (= cell_1_9 4)))
 (let (($x4859 (= cell_1_9 3)))
 (let (($x4990 (= cell_1_9 2)))
 (let (($x1774 (= cell_1_9 1)))
 (or $x1774 $x4990 $x4859 $x7626 $x8959 $x10060 $x3154 $x4147 $x2981)))))))))))
(assert
 (let (($x3582 (= cell_2_9 9)))
 (let (($x2553 (= cell_2_9 8)))
 (let (($x3247 (= cell_2_9 7)))
 (let (($x1850 (= cell_2_9 6)))
 (let (($x5627 (= cell_2_9 5)))
 (let (($x2301 (= cell_2_9 4)))
 (let (($x8185 (= cell_2_9 3)))
 (let (($x9046 (= cell_2_9 2)))
 (let (($x6615 (= cell_2_9 1)))
 (or $x6615 $x9046 $x8185 $x2301 $x5627 $x1850 $x3247 $x2553 $x3582)))))))))))
(assert
 (let (($x2049 (= cell_3_9 9)))
 (let (($x4116 (= cell_3_9 8)))
 (let (($x1500 (= cell_3_9 7)))
 (let (($x1571 (= cell_3_9 6)))
 (let (($x7243 (= cell_3_9 5)))
 (let (($x4731 (= cell_3_9 4)))
 (let (($x6912 (= cell_3_9 3)))
 (let (($x6479 (= cell_3_9 2)))
 (let (($x8891 (= cell_3_9 1)))
 (or $x8891 $x6479 $x6912 $x4731 $x7243 $x1571 $x1500 $x4116 $x2049)))))))))))
(assert
 (let (($x2338 (= cell_4_9 9)))
 (let (($x10134 (= cell_4_9 8)))
 (let (($x9363 (= cell_4_9 7)))
 (let (($x8811 (= cell_4_9 6)))
 (let (($x2499 (= cell_4_9 5)))
 (let (($x5124 (= cell_4_9 4)))
 (let (($x4945 (= cell_4_9 3)))
 (let (($x6363 (= cell_4_9 2)))
 (let (($x2843 (= cell_4_9 1)))
 (or $x2843 $x6363 $x4945 $x5124 $x2499 $x8811 $x9363 $x10134 $x2338)))))))))))
(assert
 (let (($x2130 (= cell_5_9 9)))
 (let (($x3503 (= cell_5_9 8)))
 (let (($x10151 (= cell_5_9 7)))
 (let (($x1881 (= cell_5_9 6)))
 (let (($x7662 (= cell_5_9 5)))
 (let (($x4353 (= cell_5_9 4)))
 (let (($x56 (= cell_5_9 3)))
 (let (($x6493 (= cell_5_9 2)))
 (let (($x6535 (= cell_5_9 1)))
 (or $x6535 $x6493 $x56 $x4353 $x7662 $x1881 $x10151 $x3503 $x2130)))))))))))
(assert
 (let (($x7994 (= cell_6_9 9)))
 (let (($x2390 (= cell_6_9 8)))
 (let (($x9882 (= cell_6_9 7)))
 (let (($x7572 (= cell_6_9 6)))
 (let (($x6874 (= cell_6_9 5)))
 (let (($x3030 (= cell_6_9 4)))
 (let (($x708 (= cell_6_9 3)))
 (let (($x9802 (= cell_6_9 2)))
 (let (($x6510 (= cell_6_9 1)))
 (or $x6510 $x9802 $x708 $x3030 $x6874 $x7572 $x9882 $x2390 $x7994)))))))))))
(assert
 (let (($x9575 (= cell_7_9 9)))
 (let (($x7354 (= cell_7_9 8)))
 (let (($x9132 (= cell_7_9 7)))
 (let (($x8414 (= cell_7_9 6)))
 (let (($x9903 (= cell_7_9 5)))
 (let (($x3996 (= cell_7_9 4)))
 (let (($x3999 (= cell_7_9 3)))
 (let (($x6897 (= cell_7_9 2)))
 (let (($x8258 (= cell_7_9 1)))
 (or $x8258 $x6897 $x3999 $x3996 $x9903 $x8414 $x9132 $x7354 $x9575)))))))))))
(assert
 (let (($x2792 (= cell_8_9 9)))
 (let (($x9927 (= cell_8_9 8)))
 (let (($x5782 (= cell_8_9 7)))
 (let (($x5823 (= cell_8_9 6)))
 (let (($x5150 (= cell_8_9 5)))
 (let (($x8053 (= cell_8_9 4)))
 (let (($x7708 (= cell_8_9 3)))
 (let (($x7671 (= cell_8_9 2)))
 (let (($x5319 (= cell_8_9 1)))
 (or $x5319 $x7671 $x7708 $x8053 $x5150 $x5823 $x5782 $x9927 $x2792)))))))))))
(assert
 (let (($x4310 (= cell_9_9 9)))
 (let (($x7733 (= cell_9_9 8)))
 (let (($x3101 (= cell_9_9 7)))
 (let (($x7369 (= cell_9_9 6)))
 (let (($x563 (= cell_9_9 5)))
 (let (($x1250 (= cell_9_9 4)))
 (let (($x3335 (= cell_9_9 3)))
 (let (($x1355 (= cell_9_9 2)))
 (let (($x3277 (= cell_9_9 1)))
 (or $x3277 $x1355 $x3335 $x1250 $x563 $x7369 $x3101 $x7733 $x4310)))))))))))
(assert
 (and (distinct cell_1_1 cell_1_2 cell_1_3 cell_1_4 cell_1_5 cell_1_6 cell_1_7 cell_1_8 cell_1_9) true))
(assert
 (and (distinct cell_2_1 cell_2_2 cell_2_3 cell_2_4 cell_2_5 cell_2_6 cell_2_7 cell_2_8 cell_2_9) true))
(assert
 (and (distinct cell_3_1 cell_3_2 cell_3_3 cell_3_4 cell_3_5 cell_3_6 cell_3_7 cell_3_8 cell_3_9) true))
(assert
 (and (distinct cell_4_1 cell_4_2 cell_4_3 cell_4_4 cell_4_5 cell_4_6 cell_4_7 cell_4_8 cell_4_9) true))
(assert
 (and (distinct cell_5_1 cell_5_2 cell_5_3 cell_5_4 cell_5_5 cell_5_6 cell_5_7 cell_5_8 cell_5_9) true))
(assert
 (and (distinct cell_6_1 cell_6_2 cell_6_3 cell_6_4 cell_6_5 cell_6_6 cell_6_7 cell_6_8 cell_6_9) true))
(assert
 (and (distinct cell_7_1 cell_7_2 cell_7_3 cell_7_4 cell_7_5 cell_7_6 cell_7_7 cell_7_8 cell_7_9) true))
(assert
 (and (distinct cell_8_1 cell_8_2 cell_8_3 cell_8_4 cell_8_5 cell_8_6 cell_8_7 cell_8_8 cell_8_9) true))
(assert
 (and (distinct cell_9_1 cell_9_2 cell_9_3 cell_9_4 cell_9_5 cell_9_6 cell_9_7 cell_9_8 cell_9_9) true))
(assert
 (and (distinct cell_1_1 cell_2_1 cell_3_1 cell_4_1 cell_5_1 cell_6_1 cell_7_1 cell_8_1 cell_9_1) true))
(assert
 (and (distinct cell_1_2 cell_2_2 cell_3_2 cell_4_2 cell_5_2 cell_6_2 cell_7_2 cell_8_2 cell_9_2) true))
(assert
 (and (distinct cell_1_3 cell_2_3 cell_3_3 cell_4_3 cell_5_3 cell_6_3 cell_7_3 cell_8_3 cell_9_3) true))
(assert
 (and (distinct cell_1_4 cell_2_4 cell_3_4 cell_4_4 cell_5_4 cell_6_4 cell_7_4 cell_8_4 cell_9_4) true))
(assert
 (and (distinct cell_1_5 cell_2_5 cell_3_5 cell_4_5 cell_5_5 cell_6_5 cell_7_5 cell_8_5 cell_9_5) true))
(assert
 (and (distinct cell_1_6 cell_2_6 cell_3_6 cell_4_6 cell_5_6 cell_6_6 cell_7_6 cell_8_6 cell_9_6) true))
(assert
 (and (distinct cell_1_7 cell_2_7 cell_3_7 cell_4_7 cell_5_7 cell_6_7 cell_7_7 cell_8_7 cell_9_7) true))
(assert
 (and (distinct cell_1_8 cell_2_8 cell_3_8 cell_4_8 cell_5_8 cell_6_8 cell_7_8 cell_8_8 cell_9_8) true))
(assert
 (and (distinct cell_1_9 cell_2_9 cell_3_9 cell_4_9 cell_5_9 cell_6_9 cell_7_9 cell_8_9 cell_9_9) true))
(assert
 (and (distinct cell_1_1 cell_1_2 cell_1_3 cell_2_1 cell_2_2 cell_2_3 cell_3_1 cell_3_2 cell_3_3) true))
(assert
 (and (distinct cell_1_4 cell_1_5 cell_1_6 cell_2_4 cell_2_5 cell_2_6 cell_3_4 cell_3_5 cell_3_6) true))
(assert
 (and (distinct cell_1_7 cell_1_8 cell_1_9 cell_2_7 cell_2_8 cell_2_9 cell_3_7 cell_3_8 cell_3_9) true))
(assert
 (and (distinct cell_4_1 cell_4_2 cell_4_3 cell_5_1 cell_5_2 cell_5_3 cell_6_1 cell_6_2 cell_6_3) true))
(assert
 (and (distinct cell_4_4 cell_4_5 cell_4_6 cell_5_4 cell_5_5 cell_5_6 cell_6_4 cell_6_5 cell_6_6) true))
(assert
 (and (distinct cell_4_7 cell_4_8 cell_4_9 cell_5_7 cell_5_8 cell_5_9 cell_6_7 cell_6_8 cell_6_9) true))
(assert
 (and (distinct cell_7_1 cell_7_2 cell_7_3 cell_8_1 cell_8_2 cell_8_3 cell_9_1 cell_9_2 cell_9_3) true))
(assert
 (and (distinct cell_7_4 cell_7_5 cell_7_6 cell_8_4 cell_8_5 cell_8_6 cell_9_4 cell_9_5 cell_9_6) true))
(assert
 (and (distinct cell_7_7 cell_7_8 cell_7_9 cell_8_7 cell_8_8 cell_8_9 cell_9_7 cell_9_8 cell_9_9) true))
(assert
 (let (($x3627 (and (distinct cell_5_9 cell_6_8 cell_7_7 cell_8_6) true)))
 (let (($x1598 (and (distinct cell_2_9 cell_3_8 cell_4_7 cell_5_6 cell_6_5 cell_7_4 cell_8_3 cell_9_2) true)))
 (let (($x4167 (and (distinct cell_1_8 cell_2_7 cell_3_6 cell_4_5 cell_5_4 cell_6_3 cell_7_2 cell_8_1) true)))
 (let (($x7235 (and (distinct cell_1_5 cell_2_4 cell_3_3 cell_4_2) true)))
 (let (($x9957 (and (distinct cell_5_1 cell_6_2 cell_7_3 cell_8_4) true)))
 (let (($x1058 (and (distinct cell_2_1 cell_3_2 cell_4_3 cell_5_4 cell_6_5 cell_7_6 cell_8_7 cell_9_8) true)))
 (let (($x5537 (and (distinct cell_1_2 cell_2_3 cell_3_4 cell_4_5 cell_5_6 cell_6_7 cell_7_8 cell_8_9) true)))
 (let (($x316 (and (distinct cell_1_5 cell_2_6 cell_3_7 cell_4_8) true)))
 (and $x316 $x5537 $x1058 $x9957 $x7235 $x4167 $x1598 $x3627))))))))))
(assert
 (= cell_1_7 1))
(assert
 (= cell_2_4 1))
(assert
 (= cell_3_1 1))
(assert
 (= cell_4_5 1))
(assert
 (= cell_5_9 1))
(assert
 (= cell_6_2 1))
(assert
 (= cell_7_6 1))
(assert
 (= cell_8_8 1))
(assert
 (= cell_9_3 1))
(assert
 (= cell_1_4 2))
(assert
 (= cell_2_3 2))
(assert
 (= cell_3_7 2))
(assert
 (= cell_4_1 2))
(assert
 (= cell_5_8 2))
(assert
 (= cell_6_5 2))
(assert
 (= cell_7_2 2))
(assert
 (= cell_8_6 2))
(assert
 (= cell_9_9 2))
(assert
 (= cell_1_6 3))
(assert
 (= cell_2_1 3))
(assert
 (= cell_3_9 3))
(assert
 (= cell_4_8 3))
(check-sat)

